============================[ Problem Statistics ]=============================|                                                                             ||  Number of variables:          4242                                         ||  Number of clauses:           10193                                         ||  Parse time:                   0.59 s                                       ||                                                                             |============================[ Search Statistics ]==============================| Conflicts |          ORIGINAL         |          LEARNT          | Progress ||           |    Vars  Clauses Literals |    Limit  Clauses Lit/Cl |          |===============================================================================|       100 |    1591     6398   926619 |     2345      100     53 | 62.501 % ||       250 |    1591     6398   926619 |     2580      250     75 | 62.495 % |===============================================================================restarts              : 3conflicts             : 321            (358 /sec)decisions             : 585            (0.00 % random) (653 /sec)propagations          : 11893          (13273 /sec)conflict literals     : 25668          (94.69 % deleted)CPU time              : 0.896 sSATISFIABLE